0	3.1
1	28
2	29
3	25
4	0.1
5	27
6	6.1
7	11
8	24
9	1.1
10	28
11	21
12	23
13	25
14	23
15	20
16	24
17	24
18	10
19	23
20	18
21	8.1
22	6.1
23	18
24	29
25	9.1
26	12
27	7.1
28	3.1
29	20
30	14
31	12
32	20
33	8.1
